28 15
4 1 2 5 1 4 3 5 1 4 5 4 4 5 4
4 1 3 5 13
3 4 9 14
5 2 4 8 9 14
3 7 9 15
3 1 12 13
5 5 6 7 12 13
4 1 5 7 11
8 4 7 9 11 12 13 14 15
3 3 8 10
5 1 6 7 12 14
8 2 4 6 8 9 10 14 15
1 6
3 7 10 12
6 4 6 7 8 11 14
4 2 3 7 10
3 3 7 12
3 2 5 9
3 2 13 15
5 4 10 11 14 15
4 3 6 12 15
1 1
2 6 8
3 3 4 10
4 3 5 9 11
5 2 5 6 7 10
4 1 3 7 9
3 3 13 15
1 7
